Route #1: 26 58 10 31 38
Route #2: 7 53 11 59 14
Route #3: 35 19 54 13 57 15 37 20 60
Route #4: 47 36 21 61 28 62
Route #5: 22 1 43 42 64 41 56
Route #6: 23 49 24 18 55 25 50 44 3
Route #7: 40 32 9 39 12
Route #8: 17 51 16 63 33 6
Route #9: 2 30 48 5 29 45
Route #10: 4 27 52 8 46 34
Cost 845